0.00/0.03	o 122 0
0.00/0.03	o 118 0
0.00/0.03	o 114 0
0.00/0.03	o 111 0
0.00/0.03	o 108 0
0.00/0.03	o 105 0
0.00/0.03	o 102 0
0.00/0.03	o 100 0
0.00/0.03	o 98 0
0.00/0.03	o 96 0
0.00/0.03	o 94 0
0.00/0.03	o 93 0
0.00/0.03	o 92 0
0.00/0.03	o 91 0
0.00/0.03	o 90 0
0.00/0.03	o 89 0
0.00/0.03	o 88 0
0.00/0.03	o 87 0
0.00/0.03	o 86 0
0.00/0.03	o 85 0
0.00/0.03	o 84 0
0.00/0.03	o 83 0
0.00/0.03	o 82 0
0.00/0.03	o 81 0
0.00/0.03	o 80 0
0.00/0.03	o 79 0
0.00/0.03	o 78 0
0.00/0.03	o 77 0
0.00/0.03	o 76 0
0.00/0.03	o 75 0
0.00/0.03	o 74 0
0.00/0.03	o 73 0
0.00/0.03	o 72 0
0.00/0.03	o 71 0
0.00/0.03	o 70 0
0.00/0.03	o 69 0
0.00/0.03	o 68 0
0.00/0.03	o 67 0
0.00/0.03	o 66 0
0.00/0.03	o 65 0
0.00/0.03	o 64 0
0.00/0.03	o 63 0
0.00/0.03	o 62 0
0.00/0.03	o 60 0
6.89/10.09	c verified
6.89/10.09	v 100001101001000100100100000010011010010000000010001000100001001101001011000110000001010101000000001010010101000010010010100001001110000010100100101101001000000000100100100000010001011100000110
